(set-logic QF_S)
(declare-fun var0 () String)
(assert (str.in.re var0 (re.++ (re.+ (re.* (str.to.re "00"))) (re.++ (re.* (re.union (str.to.re "1") (str.to.re "22"))) (re.++ (re.* (re.union (str.to.re "33") (str.to.re "4"))) (re.++ (re.+ (re.* (str.to.re "5"))) (re.++ (re.+ (re.+ (str.to.re "6"))) (re.++ (re.* (re.union (str.to.re "77") (str.to.re "8"))) (re.++ (re.+ (re.* (str.to.re "9"))) (re.++ (re.+ (re.+ (str.to.re "aaa"))) (re.++ (re.+ (re.+ (str.to.re "b"))) (re.+ (re.union (str.to.re "cc") (str.to.re "d"))))))))))))))
(assert (<= 176 (str.len var0)))
(check-sat)